NAME : tsp_38_sol.txt
COMMENT : OR-Tools Guided Local Search
TYPE : TOUR
DIMENSION : 184
COST : 10391
STATUS : ROUTING_SUCCESS
GAP : 0.00% (Reference Solution)
TOUR_SECTION
1
27
177
120
113
153
96
111
71
103
53
78
174
97
44
164
81
184
145
89
102
80
26
182
170
28
137
149
138
19
161
171
43
100
88
92
51
159
173
172
148
55
123
69
13
31
45
154
24
95
35
17
130
115
67
99
117
70
14
119
41
39
183
68
181
9
47
56
124
94
108
60
38
143
178
18
93
49
116
168
133
101
126
42
151
7
110
32
158
15
23
75
109
65
87
141
83
85
157
66
165
176
33
59
77
76
79
98
62
135
11
146
129
118
40
105
61
90
46
22
107
50
82
167
20
134
5
114
147
155
112
132
175
6
180
139
179
140
16
72
144
160
52
54
121
48
106
74
2
86
142
3
125
122
128
29
4
10
73
34
12
21
25
63
131
136
162
91
150
8
36
57
37
104
156
84
58
127
166
169
152
30
163
64
-1
